Version identifier: 22.1.0.0 | 2022-03-09 | 1a383f8ce
CPXPARAM_Read_DataCheck                          1
CPXPARAM_TimeLimit                               600
Tried aggregator 3 times.
MIP Presolve eliminated 130736 rows and 10050 columns.
MIP Presolve modified 1387 coefficients.
Aggregator did 122398 substitutions.
Reduced MIP has 11697 rows, 125474 columns, and 262893 nonzeros.
Reduced MIP has 125432 binaries, 42 generals, 0 SOSs, and 0 indicators.
Presolve time = 1.70 sec. (1664.61 ticks)
Tried aggregator 1 time.
Detecting symmetries...
Reduced MIP has 11697 rows, 125474 columns, and 262893 nonzeros.
Reduced MIP has 125432 binaries, 42 generals, 0 SOSs, and 0 indicators.
Presolve time = 0.31 sec. (194.80 ticks)
Probing fixed 63 vars, tightened 0 bounds.
Probing changed sense of 18 constraints.
Probing time = 0.32 sec. (35.30 ticks)
Clique table members: 253905.
MIP emphasis: balance optimality and feasibility.
MIP search method: dynamic search.
Parallel mode: deterministic, using up to 8 threads.
Root relaxation solution time = 2.19 sec. (1009.21 ticks)

        Nodes                                         Cuts/
   Node  Left     Objective  IInf  Best Integer    Best Bound    ItCnt     Gap

      0     0       42.4066  8854                     42.4066       29         
      0     0       69.0000  1030                    Cuts: 44    15965         
      0     0       69.0000  1153                    Cuts: 68    27774         
      0     0       69.0000   921                ZeroHalf: 49    43980         
      0     0       69.0000  1041                ZeroHalf: 55    56466         
Heuristic still looking.
Heuristic still looking.
Heuristic still looking.
      0     2       69.0000  1041                     69.0000    56466         
Elapsed time = 532.58 sec. (257289.86 ticks, tree = 0.02 MB, solutions = 0)
      1     3       69.0000  1011                     69.0000    58319         
      2     3       69.0000   944                     69.0000    64424         

Zero-half cuts applied:  129
Lift and project cuts applied:  3
Gomory fractional cuts applied:  27

Root node processing (before b&c):
  Real time             =  532.20 sec. (257134.77 ticks)
Parallel b&c, 8 threads:
  Real time             =   67.87 sec. (25227.64 ticks)
  Sync time (average)   =   39.52 sec.
  Wait time (average)   =    0.00 sec.
                          ------------
Total (root+branch&cut) =  600.07 sec. (282362.41 ticks)
